c smth
s vc 135 101
135
134
133
132
131
130
129
128
126
125
124
123
121
119
118
116
114
113
112
111
110
109
108
107
106
104
103
101
100
99
98
97
96
95
94
93
92
91
89
88
85
84
82
80
78
77
76
73
72
71
70
67
66
65
64
62
61
60
59
58
57
55
54
53
50
49
48
47
46
45
44
43
41
38
37
35
34
33
31
30
28
27
26
24
22
21
19
18
17
15
14
12
9
8
7
6
5
4
3
2
1